%chk=gauss.chk
%nprocs=4
%mem=6GB
#p td=(nstates=6,root=1) b3lyp/3-21g nosymm guess=read force

This is test

0 1
 C     -4.4696495800      0.2380316500      0.0002200000
 H     -5.5396495800      0.2380316500     -0.0000000000
 C     -3.7943752800      1.4130089500      0.0000000000
 H     -2.7243773800      1.4151280700     -0.0000000000
 C     -3.7022924200     -1.0971698300     -0.0000000000
 H     -3.0857789400     -1.1542249900      0.8726716600
 H     -4.3992183700     -1.9090752400      0.0019560100
 H     -3.0887164100     -1.1559137800     -0.8746277100
 H     -4.3312094400      2.3385947500      0.0000000000

